c minVC: 85
p edge 100 795
e 4 7
e 4 8
e 5 8
e 7 8
e 3 9
e 4 9
e 7 9
e 3 10
e 4 12
e 7 12
e 8 12
e 9 12
e 3 13
e 4 13
e 7 13
e 9 13
e 12 13
e 6 14
e 6 15
e 14 15
e 2 16
e 3 17
e 10 17
e 5 18
e 11 18
e 2 19
e 6 19
e 8 19
e 14 19
e 15 19
e 5 20
e 3 22
e 9 22
e 10 22
e 12 22
e 17 22
e 1 23
e 2 23
e 15 23
e 16 23
e 19 23
e 6 24
e 14 24
e 15 24
e 23 24
e 5 25
e 18 25
e 20 25
e 1 26
e 2 26
e 6 26
e 15 26
e 16 26
e 23 26
e 24 26
e 2 27
e 16 27
e 17 27
e 22 27
e 4 28
e 7 28
e 8 28
e 9 28
e 12 28
e 13 28
e 3 29
e 9 29
e 10 29
e 13 29
e 22 29
e 3 30
e 9 30
e 12 30
e 13 30
e 29 30
e 3 31
e 4 31
e 7 31
e 9 31
e 12 31
e 13 31
e 22 31
e 28 31
e 30 31
e 9 32
e 16 32
e 17 32
e 22 32
e 27 32
e 20 33
e 2 34
e 6 34
e 14 34
e 15 34
e 19 34
e 23 34
e 24 34
e 2 35
e 14 35
e 15 35
e 16 35
e 19 35
e 23 35
e 26 35
e 27 35
e 32 35
e 34 35
e 21 36
e 33 36
e 5 37
e 8 37
e 14 37
e 18 37
e 19 37
e 34 37
e 3 38
e 10 38
e 17 38
e 22 38
e 27 38
e 29 38
e 4 39
e 7 39
e 12 39
e 13 39
e 21 39
e 30 39
e 31 39
e 5 40
e 18 40
e 20 40
e 25 40
e 6 41
e 11 41
e 14 41
e 15 41
e 19 41
e 34 41
e 37 41
e 2 42
e 14 42
e 16 42
e 19 42
e 23 42
e 26 42
e 27 42
e 32 42
e 34 42
e 35 42
e 5 43
e 8 43
e 14 43
e 18 43
e 19 43
e 34 43
e 37 43
e 41 43
e 33 44
e 36 44
e 21 45
e 36 45
e 39 45
e 4 46
e 7 46
e 8 46
e 12 46
e 19 46
e 28 46
e 31 46
e 32 46
e 34 46
e 37 46
e 42 46
e 43 46
e 2 47
e 16 47
e 23 47
e 26 47
e 27 47
e 32 47
e 35 47
e 42 47
e 11 48
e 18 48
e 41 48
e 17 49
e 22 49
e 27 49
e 32 49
e 38 49
e 47 49
e 5 50
e 8 50
e 11 50
e 18 50
e 37 50
e 40 50
e 41 50
e 43 50
e 48 50
e 3 51
e 10 51
e 17 51
e 22 51
e 29 51
e 38 51
e 49 51
e 3 52
e 9 52
e 13 52
e 29 52
e 30 52
e 31 52
e 5 53
e 11 53
e 18 53
e 41 53
e 48 53
e 50 53
e 2 54
e 16 54
e 17 54
e 22 54
e 23 54
e 27 54
e 32 54
e 35 54
e 42 54
e 47 54
e 49 54
e 4 55
e 9 55
e 12 55
e 13 55
e 21 55
e 30 55
e 31 55
e 39 55
e 45 55
e 52 55
e 1 56
e 2 56
e 6 56
e 15 56
e 16 56
e 23 56
e 24 56
e 26 56
e 34 56
e 35 56
e 4 57
e 7 57
e 8 57
e 20 57
e 28 57
e 39 57
e 40 57
e 3 58
e 4 58
e 7 58
e 9 58
e 12 58
e 13 58
e 22 58
e 28 58
e 29 58
e 30 58
e 31 58
e 32 58
e 52 58
e 55 58
e 5 59
e 11 59
e 18 59
e 20 59
e 25 59
e 37 59
e 40 59
e 48 59
e 50 59
e 53 59
e 4 60
e 7 60
e 9 60
e 12 60
e 13 60
e 28 60
e 30 60
e 31 60
e 39 60
e 45 60
e 55 60
e 57 60
e 58 60
e 5 61
e 11 61
e 18 61
e 25 61
e 37 61
e 40 61
e 43 61
e 48 61
e 50 61
e 53 61
e 59 61
e 5 62
e 8 62
e 14 62
e 18 62
e 19 62
e 34 62
e 37 62
e 40 62
e 41 62
e 43 62
e 46 62
e 50 62
e 59 62
e 61 62
e 11 63
e 41 63
e 48 63
e 53 63
e 13 64
e 21 64
e 30 64
e 39 64
e 45 64
e 52 64
e 55 64
e 60 64
e 11 65
e 18 65
e 48 65
e 53 65
e 59 65
e 61 65
e 63 65
e 3 66
e 4 66
e 9 66
e 12 66
e 17 66
e 22 66
e 27 66
e 28 66
e 31 66
e 32 66
e 42 66
e 46 66
e 49 66
e 54 66
e 58 66
e 3 67
e 9 67
e 13 67
e 29 67
e 30 67
e 31 67
e 52 67
e 55 67
e 58 67
e 64 67
e 21 68
e 33 68
e 36 68
e 39 68
e 44 68
e 45 68
e 64 68
e 2 69
e 16 69
e 17 69
e 27 69
e 47 69
e 49 69
e 54 69
e 3 70
e 10 70
e 29 70
e 38 70
e 51 70
e 20 71
e 33 71
e 36 71
e 44 71
e 45 71
e 57 71
e 68 71
e 3 72
e 4 72
e 9 72
e 12 72
e 13 72
e 17 72
e 22 72
e 27 72
e 28 72
e 29 72
e 30 72
e 31 72
e 32 72
e 38 72
e 46 72
e 49 72
e 51 72
e 54 72
e 58 72
e 66 72
e 3 73
e 10 73
e 17 73
e 22 73
e 29 73
e 38 73
e 49 73
e 51 73
e 66 73
e 70 73
e 72 73
e 3 74
e 9 74
e 10 74
e 12 74
e 13 74
e 22 74
e 29 74
e 30 74
e 31 74
e 38 74
e 51 74
e 52 74
e 55 74
e 58 74
e 66 74
e 67 74
e 70 74
e 72 74
e 73 74
e 11 75
e 48 75
e 53 75
e 63 75
e 65 75
e 4 76
e 7 76
e 8 76
e 12 76
e 28 76
e 31 76
e 39 76
e 46 76
e 57 76
e 60 76
e 11 77
e 48 77
e 53 77
e 63 77
e 65 77
e 75 77
e 12 78
e 13 78
e 21 78
e 30 78
e 31 78
e 39 78
e 45 78
e 52 78
e 55 78
e 60 78
e 64 78
e 67 78
e 5 79
e 11 79
e 18 79
e 25 79
e 40 79
e 48 79
e 53 79
e 59 79
e 61 79
e 63 79
e 65 79
e 75 79
e 77 79
e 20 80
e 33 80
e 36 80
e 39 80
e 44 80
e 45 80
e 57 80
e 68 80
e 71 80
e 2 81
e 6 81
e 14 81
e 15 81
e 19 81
e 23 81
e 24 81
e 26 81
e 34 81
e 35 81
e 42 81
e 56 81
e 4 82
e 7 82
e 8 82
e 14 82
e 19 82
e 28 82
e 34 82
e 37 82
e 42 82
e 43 82
e 46 82
e 50 82
e 62 82
e 76 82
e 11 83
e 14 83
e 18 83
e 37 83
e 41 83
e 43 83
e 48 83
e 50 83
e 53 83
e 59 83
e 61 83
e 62 83
e 63 83
e 75 83
e 77 83
e 20 84
e 25 84
e 33 84
e 40 84
e 44 84
e 71 84
e 80 84
e 5 85
e 18 85
e 20 85
e 25 85
e 40 85
e 59 85
e 61 85
e 79 85
e 84 85
e 4 86
e 7 86
e 8 86
e 9 86
e 12 86
e 13 86
e 22 86
e 28 86
e 30 86
e 31 86
e 32 86
e 46 86
e 55 86
e 58 86
e 60 86
e 66 86
e 72 86
e 74 86
e 76 86
e 1 87
e 2 87
e 16 87
e 23 87
e 26 87
e 35 87
e 47 87
e 56 87
e 69 87
e 2 88
e 8 88
e 14 88
e 16 88
e 19 88
e 23 88
e 32 88
e 34 88
e 35 88
e 37 88
e 42 88
e 43 88
e 46 88
e 47 88
e 54 88
e 62 88
e 81 88
e 82 88
e 5 89
e 11 89
e 18 89
e 48 89
e 50 89
e 53 89
e 59 89
e 61 89
e 63 89
e 65 89
e 75 89
e 77 89
e 79 89
e 83 89
e 5 90
e 8 90
e 11 90
e 18 90
e 25 90
e 37 90
e 40 90
e 41 90
e 43 90
e 48 90
e 50 90
e 53 90
e 59 90
e 61 90
e 62 90
e 79 90
e 83 90
e 85 90
e 89 90
e 9 91
e 16 91
e 17 91
e 22 91
e 27 91
e 32 91
e 42 91
e 46 91
e 47 91
e 49 91
e 54 91
e 58 91
e 66 91
e 69 91
e 72 91
e 73 91
e 86 91
e 88 91
e 13 92
e 21 92
e 30 92
e 39 92
e 52 92
e 55 92
e 64 92
e 67 92
e 74 92
e 78 92
e 5 93
e 18 93
e 20 93
e 25 93
e 40 93
e 53 93
e 59 93
e 61 93
e 65 93
e 79 93
e 84 93
e 85 93
e 89 93
e 6 94
e 14 94
e 15 94
e 19 94
e 23 94
e 24 94
e 26 94
e 34 94
e 41 94
e 56 94
e 81 94
e 3 95
e 9 95
e 10 95
e 13 95
e 17 95
e 22 95
e 29 95
e 30 95
e 31 95
e 38 95
e 49 95
e 51 95
e 52 95
e 58 95
e 66 95
e 67 95
e 70 95
e 72 95
e 73 95
e 74 95
e 86 95
e 4 96
e 7 96
e 8 96
e 14 96
e 19 96
e 28 96
e 32 96
e 34 96
e 37 96
e 42 96
e 43 96
e 46 96
e 62 96
e 66 96
e 82 96
e 86 96
e 88 96
e 91 96
e 4 97
e 7 97
e 9 97
e 12 97
e 13 97
e 28 97
e 30 97
e 31 97
e 39 97
e 45 97
e 55 97
e 57 97
e 58 97
e 60 97
e 64 97
e 76 97
e 78 97
e 86 97
e 92 97
e 1 98
e 2 98
e 6 98
e 14 98
e 15 98
e 16 98
e 19 98
e 23 98
e 24 98
e 26 98
e 34 98
e 35 98
e 42 98
e 47 98
e 56 98
e 81 98
e 87 98
e 88 98
e 94 98
e 1 99
e 2 99
e 6 99
e 14 99
e 15 99
e 19 99
e 23 99
e 24 99
e 26 99
e 34 99
e 35 99
e 42 99
e 56 99
e 81 99
e 94 99
e 98 99
e 3 100
e 9 100
e 10 100
e 13 100
e 22 100
e 29 100
e 30 100
e 31 100
e 38 100
e 51 100
e 52 100
e 55 100
e 58 100
e 67 100
e 70 100
e 72 100
e 73 100
e 74 100
e 92 100
e 95 100
